Optimal - objective value 391.58000000
      0 x0_1                   1                   37.75
      2 x0_3                   1                       0
      6 x0_7                   1                   81.45
     15 x1_6                   1                       0
     27 x2_8                   1                   23.77
     38 x3_9                   1                       0
     40 x4_0                   1         1.20000000000001
     50 x5_0                   1                   38.82
     64 x6_4                   1                     -39
     79 x7_10                  1                       0
     85 x8_5                   1                       0
     90 x9_0                   1                       0
    102 x10_2                  1                       0
    110 u1       2.00000000000001                       0
    111 u2       9.00000000000001                       0
    112 u3                     4                       0
    113 u4                    22                       0
    114 u5                    24                       0
    115 u6                    10                       0
    116 u7                     4                       0
    117 u8                    13                       0
    118 u9                    24                       0
    119 u10      7.00000000000001                       0
